(set-option :produce-models true)
(set-logic QF_UF)
(declare-fun p7() Bool)
(declare-fun p33() Bool)
(declare-fun p24() Bool)
(declare-fun p8() Bool)
(declare-fun p21() Bool)
(declare-fun p13() Bool)
(declare-fun p36() Bool)
(declare-fun p10() Bool)
(declare-fun p18() Bool)
(declare-fun p3() Bool)
(declare-fun p23() Bool)
(declare-fun p44() Bool)
(declare-fun p26() Bool)
(declare-fun p31() Bool)
(declare-fun p25() Bool)
(declare-fun p41() Bool)
(declare-fun p19() Bool)
(declare-fun p29() Bool)
(declare-fun p5() Bool)
(declare-fun p35() Bool)
(declare-fun p48() Bool)
(declare-fun p37() Bool)
(declare-fun p32() Bool)
(declare-fun p20() Bool)
(declare-fun p11() Bool)
(declare-fun p4() Bool)
(declare-fun p27() Bool)
(declare-fun p38() Bool)
(declare-fun p16() Bool)
(declare-fun p6() Bool)
(declare-fun p47() Bool)
(declare-fun p15() Bool)
(declare-fun p46() Bool)
(declare-fun p40() Bool)
(declare-fun p14() Bool)
(declare-fun p43() Bool)
(declare-fun p45() Bool)
(declare-fun p0() Bool)
(declare-fun p12() Bool)
(declare-fun p17() Bool)
(declare-fun p28() Bool)
(declare-fun p9() Bool)
(declare-fun p30() Bool)
(declare-fun p1() Bool)
(declare-fun p34() Bool)
(declare-fun p2() Bool)
(declare-fun p49() Bool)
(declare-fun p42() Bool)
(declare-fun p39() Bool)
(declare-fun p22() Bool)
(assert
(and (or (not p7) (not p33) (not p24)) (or (not p8) p21 p13) (or p36 p10 p18) (or (not p21) p3 (not p23)) (or p44 p7 (not p26)) (or (not p31) p25 (not p41)) (or p19 p19 p10) (or (not p29) (not p5) (not p44)) (or p35 p3 p21) (or (not p25) p48 p37) (or p32 (not p20) (not p26)) (or (not p23) (not p11) (not p36)) (or (not p4) p10 p33) (or p26 p4 p3) (or p27 (not p38) p10) (or p23 p16 p6) (or p29 p3 p27) (or p24 (not p4) p25) (or (not p33) p47 (not p35)) (or (not p5) p29 p15) (or p6 p11 (not p3)) (or p3 p46 (not p18)) (or p8 p16 p37) (or p40 (not p23) (not p41)) (or (not p13) (not p14) p48) (or (not p29) (not p43) p45) (or (not p26) (not p18) p14) (or (not p40) (not p11) (not p0)) (or (not p13) (not p43) p13) (or (not p12) p15 (not p29)) (or (not p0) (not p24) (not p6)) (or p17 p27 (not p35)) (or p29 (not p19) p29) (or (not p28) p13 p13) (or (not p6) p11 (not p31)) (or (not p44) (not p38) p12) (or p35 (not p4) (not p6)) (or p29 p35 (not p11)) (or (not p38) (not p38) p5) (or (not p16) p38 p21) (or p24 (not p19) p17) (or p45 (not p45) (not p7)) (or p27 p44 p9) (or (not p10) p0 p28) (or p6 p9 (not p30)) (or (not p0) (not p46) p14) (or (not p48) (not p19) (not p3)) (or p6 p3 (not p37)) (or (not p40) p5 (not p33)) (or p41 (not p41) p1) (or p45 p32 p19) (or p12 (not p27) (not p4)) (or p34 p28 p38) (or p21 p5 p2) (or (not p5) (not p26) (not p49)) (or p13 (not p30) (not p43)) (or p15 p20 p19) (or (not p46) (not p47) (not p28)) (or (not p21) p42 (not p28)) (or p13 p0 (not p48)) (or (not p9) (not p25) p6) (or (not p39) p34 (not p37)) (or (not p3) (not p2) p42) (or (not p17) (not p21) (not p24)) (or p45 (not p41) (not p37)) (or p17 (not p48) p21) (or (not p19) (not p42) (not p9)) (or p4 (not p24) (not p8)) (or (not p39) (not p11) p17) (or (not p24) (not p22) (not p2)) (or p26 p12 (not p14)) (or (not p35) (not p12) p26) (or (not p46) (not p5) (not p39)) (or (not p12) p16 p16) (or (not p5) p16 (not p44)) (or (not p19) p34 p10) (or (not p10) p49 p24) (or (not p20) (not p10) (not p18)) (or (not p1) p41 (not p44)) (or p7 p3 p23) (or p41 (not p18) (not p9)) (or (not p33) p41 (not p4)) (or (not p49) p2 p22) (or (not p27) p16 (not p29)) (or p15 (not p32) p28) (or p28 p30 (not p46)) (or p44 p26 (not p9)) (or p16 (not p19) p41) (or (not p24) (not p17) p23) (or (not p48) (not p19) p35) (or (not p9) p16 p46) (or (not p32) (not p18) (not p8)) (or p17 (not p12) p36) (or (not p20) p29 p28) (or p4 (not p10) p33) (or (not p41) p38 p32) (or p3 p27 p11) (or (not p21) (not p46) (not p32)) (or (not p25) (not p25) (not p8)) (or p31 p36 (not p48)) (or (not p43) p0 p32) (or (not p7) (not p20) (not p25)) (or (not p40) (not p26) p2) (or (not p8) (not p45) (not p32)) (or (not p39) p37 (not p5)) (or p8 (not p45) p22) (or p34 p41 (not p4)) (or p49 (not p43) (not p34)) (or (not p22) (not p6) (not p32)) (or (not p26) (not p1) p32) (or (not p26) p1 p46) (or p49 (not p20) p28) (or p11 (not p29) p35) (or p18 (not p10) (not p8)) (or p6 p16 p13) (or p22 p32 (not p23)) (or (not p15) (not p3) p26) (or (not p2) p11 p5) (or p28 p21 p21) (or (not p34) p35 (not p15)) (or (not p14) (not p36) p36) (or p1 p14 (not p12)) (or (not p46) p12 (not p5)) (or p3 (not p2) (not p5)) (or p48 (not p34) p11) (or p0 (not p35) p13) (or (not p6) p32 p7) (or p36 p43 (not p39)) (or (not p33) (not p26) p4) (or (not p38) (not p29) p48) (or p11 p32 (not p49)) (or (not p28) p28 p49) (or (not p32) (not p7) (not p30)) (or (not p21) (not p49) p34) (or p1 p43 p41) (or p27 (not p44) (not p19)) (or p46 p34 p14) (or (not p19) p40 p12) (or p18 (not p17) p32) (or (not p11) p30 (not p42)) (or (not p5) (not p30) p11) (or p33 (not p45) (not p46)) (or p42 p49 (not p41)) (or (not p2) p25 p13) (or (not p5) p25 (not p40)) (or p41 (not p35) (not p41)) (or p22 (not p41) p17) (or p20 (not p7) (not p2)) (or (not p48) (not p41) (not p29)) (or p8 p42 p22) (or p10 (not p41) (not p1)) (or p8 (not p32) (not p3)) (or p37 (not p32) p26) (or (not p38) p39 (not p22)) (or (not p10) p3 p7) (or p38 (not p11) p48) (or (not p27) (not p25) (not p42)) (or (not p25) p44 p35) (or (not p39) p9 (not p44)) (or (not p7) p22 p14) (or p33 (not p6) p19) (or p4 (not p14) (not p49)) (or (not p24) (not p39) (not p1)) (or (not p45) (not p30) p43) (or p9 (not p46) p7) (or p46 p31 p8) (or p24 (not p38) (not p35)) (or p35 p35 (not p41)) (or (not p47) (not p47) (not p27)) (or p10 p0 p6) (or p47 p42 p9) (or (not p43) p34 p35) (or (not p35) p35 p36) (or (not p17) p42 p29) (or p36 (not p21) (not p17)) (or (not p43) (not p32) p22) (or (not p31) (not p43) p41) (or (not p36) (not p9) (not p23)) (or p18 (not p0) (not p4)) (or p47 p14 (not p14)) (or (not p4) p12 p47) (or (not p44) (not p3) p28) (or p25 p47 (not p43)) (or (not p5) (not p23) (not p35)) (or p15 (not p20) (not p43)) (or (not p22) (not p9) (not p35)) (or (not p15) p16 (not p44)) (or p24 (not p49) p47) (or (not p19) p25 p7) (or (not p11) (not p3) p27) (or (not p44) p36 (not p43)) (or (not p22) p11 p23) (or p49 (not p2) p11) (or p10 (not p9) p47) (or (not p26) p8 p11) (or p22 (not p47) (not p24)) (or p47 (not p31) p21) (or (not p49) (not p39) p32) (or p47 (not p11) (not p22)) (or p11 (not p14) (not p6)) (or p40 (not p11) p2) (or (not p17) p6 p24) (or p48 p46 (not p2)) (or p32 (not p42) (not p24)) (or (not p8) p29 (not p31)) (or p20 (not p33) p3) (or p37 p14 (not p1)) (or (not p18) (not p39) (not p33)) (or (not p12) p37 (not p38)) (or p42 p36 p26))
)
(check-sat)
(get-model)
